size = 9;
nPts = 3;
mDist = 3;

cost = [| 9, 9, 9, 9, 9, 9, 9, 9, 9 |
          8, 0, 8, 0, 8, 0, 8, 0, 9 |
          7, 7, 7, 7, 7, 7, 7, 8, 9 |
          6, 0, 6, 0, 6, 0, 7, 0, 9 |
          5, 5, 5, 5, 5, 6, 7, 8, 9 |
          4, 0, 4, 0, 5, 0, 7, 0, 9 |
          3, 3, 3, 4, 5, 6, 7, 8, 9 |
          2, 0, 3, 0, 5, 0, 7, 0, 9 |
          1, 2, 3, 4, 5, 6, 7, 8, 9 |];